NAME : problems/40-tsp/instance-41.tsp
COMMENT : No Comment
TYPE : TSP
DIMENSION: 40
EDGE_WEIGHT_TYPE : EUC_2D
NODE_COORD_SECTION
1 5795 6127 
2 3041 2443 
3 7658 1387 
4 5177 3345 
5 4525 208 
6 2051 3432 
7 6179 4009 
8 8582 8216 
9 9641 7858 
10 4045 2784 
11 9333 3513 
12 962 6911 
13 5790 3209 
14 3001 8972 
15 5927 2073 
16 8452 4631 
17 6019 3441 
18 441 2217 
19 8199 963 
20 9046 5730 
21 4163 973 
22 1003 5410 
23 7243 9123 
24 8495 1642 
25 2524 4853 
26 44 5744 
27 4728 7692 
28 6972 5133 
29 9795 197 
30 8593 3429 
31 1211 686 
32 4511 4019 
33 8259 7617 
34 7920 8317 
35 4511 3832 
36 5585 6582 
37 2174 7998 
38 6353 4653 
39 9082 6278 
40 4638 5767 
EOF
